p cnf 316 346
c p distribution  0.95 0.03 0.02
c p distribution  0.85 0.1 0.05
c p distribution  0.8 0.15 0.05
c p distribution  0.7 0.2 0.1
c p distribution  0.7 0.15 0.15
c p distribution  0.25 0.25 0.5
c p distribution  0.9 0.08 0.02
c p distribution  0.1 0.9
c p distribution  0.8 0.1 0.1
c p distribution  0.65 0.05 0.3
c p distribution  0.45 0.05 0.5
c p distribution  0.9 0.1
c p distribution  0.4 0.43 0.15 0.02
c p distribution  0.02 0.09 0.09 0.8
c p distribution  0.02 0.16 0.8 0.02
c p distribution  0.01 0.02 0.95 0.02
c p distribution  0.01 0.03 0.95 0.01
c p distribution  0.4 0.53 0.05 0.02
c p distribution  0.9 0.03 0.03 0.01 0.03
c p distribution  0.05 0.02 0.15 0.7 0.08
c p distribution  0.05 0.05 0.05 0.05 0.8
c p distribution  0.14 0.8 0.02 0.02 0.02
c p distribution  0.05 0.22 0.08 0.5 0.15
c p distribution  0.05 0.15 0.05 0.05 0.7
c p distribution  0.15 0.01 0.79 0.04 0.01
c p distribution  0.05 0.02 0.4 0.4 0.13
c p distribution  0.24 0.33 0.03 0.34 0.06
c p distribution  0.2 0.3 0.25 0.15 0.05 0.05
c p distribution  0.03061224 0.33673469 0.29591837 0.23469388 0.05102041 0.05102041
c p distribution  0.15 0.05 0.8
c p distribution  0.1 0.8 0.1
c p distribution  0.8 0.2 0.0
c p distribution  1.0 0.0 0.0
c p distribution  0.33 0.33 0.34
c p distribution  0.2 0.4 0.4
c p distribution  0.2 0.8
c p distribution  0.05 0.95
c p distribution  0.4 0.6
c p distribution  0.8 0.2
c p distribution  0.1 0.9
c p distribution  0.95 0.05
c p distribution  0.5 0.5
c p distribution  0.93 0.05 0.02
c p distribution  0.15 0.8 0.05
c p distribution  0.7 0.2 0.1
c p distribution  0.1 0.8 0.1
c p distribution  0.1 0.75 0.15
c p distribution  0.1 0.65 0.25
c p distribution  0.05 0.65 0.3
c p distribution  0.1 0.5 0.4
c p distribution  0.02 0.18 0.8
c p distribution  0.1 0.3 0.6
c p distribution  0.1 0.9
c p distribution  0.05 0.95
c p distribution  0.9 0.1
c p distribution  0.05 0.95
c p distribution  0.1 0.3 0.6
c p distribution  0.5 0.4 0.1
c p distribution  0.5 0.45 0.05
c p distribution  0.6 0.35 0.05
c p distribution  0.3 0.65 0.05
c p distribution  0.2 0.05 0.75
c p distribution  0.15 0.8 0.05
c p distribution  0.1 0.85 0.05
c p distribution  0.3 0.1 0.6
c p distribution  0.7 0.1 0.2
c p distribution  0.6 0.1 0.3
c p distribution  0.8 0.05 0.15
c p distribution  0.03 0.25 0.72
c p distribution  0.1 0.3 0.6
c p distribution  0.5 0.4 0.1
c p distribution  0.4 0.6
c p distribution  0.3 0.7
c p distribution  0.2 0.8
c p distribution  0.8 0.06 0.06 0.02 0.06
c p distribution  0.1 0.8 0.02 0.02 0.06
c p distribution  0.08 0.02 0.1 0.6 0.2
c p distribution  0.08 0.02 0.1 0.1 0.7
257 -276 -310 -1 0
258 -276 -310 -2 0
259 -276 -310 -3 0
257 -276 -311 -4 0
258 -276 -311 -5 0
259 -276 -311 -6 0
257 -277 -310 -7 0
258 -277 -310 -8 0
259 -277 -310 -9 0
257 -277 -311 -10 0
258 -277 -311 -11 0
259 -277 -311 -12 0
257 -278 -310 -13 0
258 -278 -310 -14 0
259 -278 -310 -15 0
257 -278 -311 -16 0
258 -278 -311 -17 0
259 -278 -311 -18 0
257 -279 -310 -7 0
258 -279 -310 -8 0
259 -279 -310 -9 0
257 -279 -311 -7 0
258 -279 -311 -8 0
259 -279 -311 -9 0
257 -280 -310 -7 0
258 -280 -310 -8 0
259 -280 -310 -9 0
257 -280 -311 -10 0
258 -280 -311 -11 0
259 -280 -311 -12 0
257 -281 -310 -19 0
258 -281 -310 -20 0
259 -281 -310 -21 0
257 -281 -311 -7 0
258 -281 -311 -8 0
259 -281 -311 -9 0
260 -22 0
261 -23 0
262 -304 -24 0
263 -304 -25 0
264 -304 -26 0
262 -305 -27 0
263 -305 -28 0
264 -305 -29 0
262 -306 -30 0
263 -306 -31 0
264 -306 -32 0
265 -262 -33 0
266 -262 -34 0
265 -263 -33 0
266 -263 -34 0
265 -264 -34 0
266 -264 -33 0
267 -276 -35 0
268 -276 -36 0
269 -276 -37 0
270 -276 -38 0
267 -277 -39 0
268 -277 -40 0
269 -277 -41 0
270 -277 -42 0
267 -278 -43 0
268 -278 -44 0
269 -278 -45 0
270 -278 -46 0
267 -279 -47 0
268 -279 -48 0
269 -279 -49 0
270 -279 -50 0
267 -280 -51 0
268 -280 -52 0
269 -280 -53 0
270 -280 -54 0
267 -281 -55 0
268 -281 -56 0
269 -281 -57 0
270 -281 -58 0
271 -301 -304 -59 0
272 -301 -304 -60 0
273 -301 -304 -61 0
274 -301 -304 -62 0
275 -301 -304 -63 0
271 -301 -305 -64 0
272 -301 -305 -65 0
273 -301 -305 -66 0
274 -301 -305 -67 0
275 -301 -305 -68 0
271 -301 -306 -69 0
272 -301 -306 -70 0
273 -301 -306 -71 0
274 -301 -306 -72 0
275 -301 -306 -73 0
271 -302 -304 -74 0
272 -302 -304 -75 0
273 -302 -304 -76 0
274 -302 -304 -77 0
275 -302 -304 -78 0
271 -302 -305 -79 0
272 -302 -305 -80 0
273 -302 -305 -81 0
274 -302 -305 -82 0
275 -302 -305 -83 0
271 -302 -306 -84 0
272 -302 -306 -85 0
273 -302 -306 -86 0
274 -302 -306 -87 0
275 -302 -306 -88 0
271 -303 -304 -89 0
272 -303 -304 -90 0
273 -303 -304 -91 0
274 -303 -304 -92 0
275 -303 -304 -93 0
271 -303 -305 -94 0
272 -303 -305 -95 0
273 -303 -305 -96 0
274 -303 -305 -97 0
275 -303 -305 -98 0
271 -303 -306 -99 0
272 -303 -306 -100 0
273 -303 -306 -101 0
274 -303 -306 -102 0
275 -303 -306 -103 0
276 -260 -104 0
277 -260 -105 0
278 -260 -106 0
279 -260 -107 0
280 -260 -108 0
281 -260 -109 0
276 -261 -110 0
277 -261 -111 0
278 -261 -112 0
279 -261 -113 0
280 -261 -114 0
281 -261 -115 0
282 -276 -116 0
283 -276 -117 0
284 -276 -118 0
282 -277 -119 0
283 -277 -120 0
284 -277 -121 0
282 -278 -122 0
283 -278 -123 0
284 -278 -124 0
282 -279 -125 0
283 -279 -126 0
284 -279 -127 0
282 -280 -128 0
283 -280 -129 0
284 -280 -130 0
282 -281 -131 0
283 -281 -132 0
284 -281 -133 0
285 -304 -310 -134 0
286 -304 -310 -135 0
285 -304 -311 -136 0
286 -304 -311 -137 0
285 -305 -310 -138 0
286 -305 -310 -139 0
285 -305 -311 -134 0
286 -305 -311 -135 0
285 -306 -310 -135 0
286 -306 -310 -134 0
285 -306 -311 -139 0
286 -306 -311 -138 0
287 -285 -140 0
288 -285 -141 0
287 -286 -142 0
288 -286 -143 0
289 -267 -282 -144 0
290 -267 -282 -145 0
289 -267 -283 -144 0
290 -267 -283 -145 0
289 -267 -284 -145 0
290 -267 -284 -144 0
289 -268 -282 -144 0
290 -268 -282 -145 0
289 -268 -283 -144 0
290 -268 -283 -145 0
289 -268 -284 -146 0
290 -268 -284 -147 0
289 -269 -282 -144 0
290 -269 -282 -145 0
289 -269 -283 -144 0
290 -269 -283 -145 0
289 -269 -284 -144 0
290 -269 -284 -145 0
289 -270 -282 -144 0
290 -270 -282 -145 0
289 -270 -283 -144 0
290 -270 -283 -145 0
289 -270 -284 -146 0
290 -270 -284 -147 0
291 -267 -304 -148 0
292 -267 -304 -149 0
293 -267 -304 -150 0
291 -267 -305 -151 0
292 -267 -305 -152 0
293 -267 -305 -153 0
291 -267 -306 -154 0
292 -267 -306 -155 0
293 -267 -306 -156 0
291 -268 -304 -157 0
292 -268 -304 -158 0
293 -268 -304 -159 0
291 -268 -305 -160 0
292 -268 -305 -161 0
293 -268 -305 -162 0
291 -268 -306 -163 0
292 -268 -306 -164 0
293 -268 -306 -165 0
291 -269 -304 -156 0
292 -269 -304 -154 0
293 -269 -304 -155 0
291 -269 -305 -166 0
292 -269 -305 -167 0
293 -269 -305 -168 0
291 -269 -306 -169 0
292 -269 -306 -170 0
293 -269 -306 -171 0
291 -270 -304 -172 0
292 -270 -304 -173 0
293 -270 -304 -174 0
291 -270 -305 -175 0
292 -270 -305 -176 0
293 -270 -305 -177 0
291 -270 -306 -172 0
292 -270 -306 -173 0
293 -270 -306 -174 0
294 -276 -178 0
295 -276 -179 0
294 -277 -178 0
295 -277 -179 0
294 -278 -178 0
295 -278 -179 0
294 -279 -179 0
295 -279 -178 0
294 -280 -180 0
295 -280 -181 0
294 -281 -178 0
295 -281 -179 0
296 -294 -182 0
297 -294 -183 0
296 -295 -184 0
297 -295 -185 0
298 -289 -291 -186 0
299 -289 -291 -187 0
300 -289 -291 -188 0
298 -289 -292 -187 0
299 -289 -292 -188 0
300 -289 -292 -186 0
298 -289 -293 -189 0
299 -289 -293 -190 0
300 -289 -293 -191 0
298 -290 -291 -190 0
299 -290 -291 -189 0
300 -290 -291 -191 0
298 -290 -292 -192 0
299 -290 -292 -193 0
300 -290 -292 -194 0
298 -290 -293 -195 0
299 -290 -293 -196 0
300 -290 -293 -197 0
301 -276 -198 0
302 -276 -199 0
303 -276 -200 0
301 -277 -201 0
302 -277 -202 0
303 -277 -203 0
301 -278 -204 0
302 -278 -205 0
303 -278 -206 0
301 -279 -207 0
302 -279 -208 0
303 -279 -209 0
301 -280 -210 0
302 -280 -211 0
303 -280 -212 0
301 -281 -213 0
302 -281 -214 0
303 -281 -215 0
304 -276 -216 0
305 -276 -217 0
306 -276 -218 0
304 -277 -219 0
305 -277 -220 0
306 -277 -221 0
304 -278 -219 0
305 -278 -220 0
306 -278 -221 0
304 -279 -219 0
305 -279 -220 0
306 -279 -221 0
304 -280 -217 0
305 -280 -216 0
306 -280 -218 0
304 -281 -222 0
305 -281 -223 0
306 -281 -224 0
307 -291 -225 0
308 -291 -226 0
309 -291 -227 0
307 -292 -226 0
308 -292 -227 0
309 -292 -225 0
307 -293 -228 0
308 -293 -229 0
309 -293 -230 0
310 -276 -231 0
311 -276 -232 0
310 -277 -233 0
311 -277 -234 0
310 -278 -235 0
311 -278 -236 0
310 -279 -233 0
311 -279 -234 0
310 -280 -234 0
311 -280 -233 0
310 -281 -234 0
311 -281 -233 0
312 -271 -237 0
313 -271 -238 0
314 -271 -239 0
315 -271 -240 0
316 -271 -241 0
312 -272 -242 0
313 -272 -243 0
314 -272 -244 0
315 -272 -245 0
316 -272 -246 0
312 -273 -242 0
313 -273 -244 0
314 -273 -245 0
315 -273 -243 0
316 -273 -246 0
312 -274 -247 0
313 -274 -248 0
314 -274 -249 0
315 -274 -250 0
316 -274 -251 0
312 -275 -252 0
313 -275 -253 0
314 -275 -254 0
315 -275 -255 0
316 -275 -256 0
-257 0
-259 0

